,0
0,"3-SAT autogerated in DIMACS-CNF format
p cnf 16 7
6 5 11 0
2 -8 -6 0
-12 -9 -12 0
14 10 -1 0
-15 10 -16 0
15 4 -11 0
-7 -3 -13 0"
1,"3-SAT autogerated in DIMACS-CNF format
p cnf 17 8
-6 4 -11 0
7 -17 6 0
-9 4 -10 0
3 12 -16 0
3 7 -10 0
-2 15 -13 0
-14 8 13 0
7 5 1 0"
2,"3-SAT autogerated in DIMACS-CNF format
p cnf 20 8
8 15 15 0
-17 20 -4 0
13 14 -13 0
10 -12 -9 0
10 -11 -3 0
5 7 19 0
-16 2 -1 0
18 1 6 0"
3,"3-SAT autogerated in DIMACS-CNF format
p cnf 15 12
-6 -7 -8 0
-3 -12 -12 0
-2 5 -10 0
-4 2 -13 0
15 -12 -11 0
14 -9 8 0
15 -5 -1 0
-7 15 -2 0
13 -10 12 0
6 -10 8 0
-9 12 7 0
-5 6 -13 0"
4,"3-SAT autogerated in DIMACS-CNF format
p cnf 12 7
8 -6 -11 0
-2 -12 7 0
-6 7 -10 0
-6 -11 -6 0
1 2 8 0
-8 3 -7 0
-4 9 -5 0"
5,"3-SAT autogerated in DIMACS-CNF format
p cnf 8 6
4 -1 5 0
-8 -8 5 0
7 -1 -4 0
-2 6 2 0
-4 -6 7 0
3 -7 -5 0"
6,"3-SAT autogerated in DIMACS-CNF format
p cnf 13 15
7 -8 1 0
2 -9 1 0
13 -3 7 0
1 -6 4 0
6 -6 6 0
-13 9 -4 0
-7 5 11 0
-3 1 1 0
4 -13 5 0
-4 3 -3 0
9 12 11 0
4 -12 10 0
-1 -12 -12 0
3 -7 -10 0
-10 -13 -5 0"
7,"3-SAT autogerated in DIMACS-CNF format
p cnf 12 14
-12 -3 -10 0
1 7 -5 0
5 10 3 0
12 3 11 0
12 6 -8 0
-8 -3 5 0
6 -12 11 0
1 -6 12 0
-2 -9 11 0
-11 -11 7 0
1 -1 9 0
-11 6 -7 0
-5 9 4 0
11 -4 4 0"
8,"3-SAT autogerated in DIMACS-CNF format
p cnf 3 4
-2 -2 1 0
-3 -1 -1 0
-1 1 -1 0
-1 -2 -1 0"
9,"3-SAT autogerated in DIMACS-CNF format
p cnf 10 18
-3 4 5 0
-7 -1 -6 0
6 -4 5 0
4 9 -3 0
-5 2 2 0
9 5 -9 0
-3 3 -3 0
-8 -5 -7 0
1 2 2 0
-3 -5 -8 0
-9 4 1 0
-6 6 10 0
-4 1 9 0
6 -9 3 0
-4 10 3 0
-8 -6 -3 0
6 -1 -8 0
-10 3 -10 0"
10,"3-SAT autogerated in DIMACS-CNF format
p cnf 5 8
3 2 2 0
3 -3 2 0
4 1 2 0
3 -2 -1 0
1 1 -5 0
-4 4 -5 0
-2 2 1 0
5 -3 1 0"
11,"3-SAT autogerated in DIMACS-CNF format
p cnf 11 17
4 -3 -3 0
-2 -2 -9 0
-5 8 -7 0
-1 -5 11 0
7 -7 11 0
3 -6 -5 0
7 6 11 0
-2 -1 -11 0
4 8 11 0
1 -3 4 0
-6 1 11 0
7 -3 -11 0
5 -6 2 0
5 1 6 0
3 -6 7 0
10 3 6 0
5 5 -8 0"
12,"3-SAT autogerated in DIMACS-CNF format
p cnf 7 15
4 -2 6 0
-3 -6 2 0
3 2 -3 0
7 2 3 0
4 -1 -4 0
-5 2 1 0
-1 -5 5 0
-3 6 -3 0
6 4 1 0
-4 6 -6 0
3 -1 2 0
3 3 -3 0
-5 -1 7 0
3 2 3 0
-1 2 7 0"
13,"3-SAT autogerated in DIMACS-CNF format
p cnf 7 16
-2 -6 -1 0
5 -6 -2 0
-5 2 -4 0
1 -3 -1 0
4 4 -1 0
-4 -1 -1 0
-2 -1 -1 0
-5 -7 -5 0
2 -1 7 0
1 2 5 0
1 -3 -1 0
3 -3 -1 0
5 -2 7 0
-3 -3 2 0
-2 -7 -2 0
-7 5 7 0"
14,"3-SAT autogerated in DIMACS-CNF format
p cnf 5 11
-4 5 -1 0
-2 -4 2 0
1 -3 1 0
1 -5 5 0
-3 -3 -1 0
-1 4 4 0
1 -5 -1 0
2 -1 -5 0
5 -1 -4 0
-3 -5 -2 0
1 5 5 0"
15,"3-SAT autogerated in DIMACS-CNF format
p cnf 5 13
-4 3 -4 0
5 4 4 0
2 3 5 0
-1 3 -1 0
1 -3 -3 0
-3 -5 5 0
3 5 3 0
-1 1 -5 0
-5 -1 -1 0
-2 4 -5 0
-2 2 -3 0
3 5 -2 0
-3 2 -5 0"
16,"3-SAT autogerated in DIMACS-CNF format
p cnf 6 17
5 6 3 0
5 5 -2 0
3 3 4 0
3 6 3 0
-4 3 -1 0
-2 -4 -1 0
-4 -6 5 0
-3 -3 5 0
-4 -5 6 0
-2 4 -4 0
-3 4 6 0
-4 -2 -4 0
3 2 1 0
5 -4 1 0
-4 -1 -4 0
-6 5 -6 0
-5 -6 5 0"
17,"3-SAT autogerated in DIMACS-CNF format
p cnf 5 14
-1 5 3 0
4 4 -2 0
4 3 3 0
-3 4 1 0
-5 -2 5 0
-3 5 -4 0
2 -1 4 0
-4 -1 -2 0
2 5 -5 0
-1 -3 3 0
5 -5 -3 0
-3 2 -5 0
-2 -1 -2 0
-2 1 -1 0"
18,"3-SAT autogerated in DIMACS-CNF format
p cnf 5 16
4 -3 5 0
3 -2 -5 0
3 -3 2 0
-2 2 2 0
-3 -2 2 0
-1 -2 -1 0
2 -3 -2 0
-1 2 -4 0
-1 -2 -3 0
4 5 -3 0
3 -2 -1 0
-3 -4 -1 0
-1 -3 2 0
-4 2 5 0
1 5 -3 0
2 -2 -4 0"
19,"3-SAT autogerated in DIMACS-CNF format
p cnf 6 19
-5 -6 1 0
3 4 -3 0
-1 4 -3 0
3 3 3 0
2 -6 3 0
4 -6 -6 0
6 4 6 0
-6 4 6 0
1 6 -6 0
3 -1 -4 0
-5 3 -3 0
-6 1 5 0
-2 6 -2 0
-3 1 6 0
5 4 1 0
1 5 -2 0
1 -5 -6 0
6 5 2 0
-4 -2 -3 0"
20,"3-SAT autogerated in DIMACS-CNF format
p cnf 4 13
-3 1 3 0
4 -3 2 0
-1 -3 4 0
-3 4 4 0
2 -1 3 0
-2 -4 -1 0
-2 4 4 0
-4 1 1 0
3 -1 -4 0
-3 1 -4 0
3 3 -1 0
-3 2 4 0
3 1 -3 0"
21,"3-SAT autogerated in DIMACS-CNF format
p cnf 6 22
5 -3 -3 0
1 2 3 0
-1 -2 5 0
-4 1 -2 0
-6 4 2 0
-6 -2 2 0
-6 5 2 0
2 6 -1 0
3 -3 4 0
5 6 6 0
-3 -1 -4 0
-1 -1 6 0
-1 -1 -2 0
-6 -2 4 0
6 1 5 0
1 -5 -4 0
1 -3 -5 0
-1 -1 5 0
-2 -1 6 0
-2 -5 -6 0
-2 5 3 0
3 3 -2 0"
22,"3-SAT autogerated in DIMACS-CNF format
p cnf 5 18
3 -2 3 0
-3 -4 4 0
3 5 -1 0
-3 2 1 0
4 1 -2 0
-2 3 -2 0
5 -4 -3 0
1 -2 3 0
-5 -1 3 0
-1 3 -4 0
2 -4 4 0
3 -4 -2 0
-5 -2 -4 0
2 -4 4 0
4 4 -4 0
1 -3 -2 0
1 2 -1 0
-5 2 -5 0"
23,"3-SAT autogerated in DIMACS-CNF format
p cnf 4 15
1 -1 -4 0
-3 -4 -4 0
1 -3 -2 0
-1 2 -4 0
-3 1 -3 0
4 2 3 0
1 3 -1 0
2 -2 1 0
3 -3 4 0
-3 -1 -2 0
2 -4 4 0
-3 -1 -4 0
3 -3 -1 0
-1 -1 1 0
4 1 3 0"
24,"3-SAT autogerated in DIMACS-CNF format
p cnf 5 22
2 -1 5 0
-1 2 3 0
3 4 4 0
-5 5 1 0
2 -4 3 0
2 -2 4 0
4 5 1 0
4 1 -3 0
2 -5 -2 0
-3 4 -5 0
-3 2 -5 0
-5 -1 1 0
-1 -4 -3 0
-4 4 -2 0
1 2 -2 0
2 -2 3 0
5 2 5 0
-3 -5 -5 0
-1 2 5 0
4 -5 -4 0
3 -3 -1 0
-2 3 -3 0"
25,"3-SAT autogerated in DIMACS-CNF format
p cnf 3 13
3 2 -1 0
3 1 -3 0
3 1 -3 0
-2 -3 -2 0
-1 1 -1 0
1 2 1 0
1 -1 3 0
3 -2 -3 0
-1 2 -3 0
-2 -3 1 0
1 2 3 0
-3 -3 -3 0
3 1 3 0"
26,"3-SAT autogerated in DIMACS-CNF format
p cnf 5 21
-1 3 -4 0
-5 -2 1 0
4 1 1 0
-2 3 -4 0
-5 -4 1 0
-1 -4 5 0
4 -3 1 0
-5 2 -5 0
4 -2 5 0
5 1 2 0
3 -1 -2 0
-3 2 5 0
4 -1 -1 0
1 -1 5 0
-2 2 2 0
1 4 -1 0
3 -1 1 0
3 -1 5 0
-2 1 2 0
-5 5 -1 0
3 1 3 0"
27,"3-SAT autogerated in DIMACS-CNF format
p cnf 4 19
-2 1 -4 0
-3 1 -3 0
-3 -4 2 0
-1 -3 2 0
-2 2 -4 0
4 2 4 0
3 -4 2 0
-4 -4 4 0
-2 3 3 0
-4 3 -1 0
-1 -3 -2 0
-2 2 2 0
-3 2 1 0
1 2 -4 0
-1 -2 -2 0
-4 -4 -1 0
2 2 -4 0
3 3 3 0
-2 2 1 0"
28,"3-SAT autogerated in DIMACS-CNF format
p cnf 5 23
2 -5 -3 0
-3 3 3 0
-4 5 -5 0
3 5 -3 0
2 -2 4 0
-1 1 -3 0
-5 -3 -5 0
-5 -3 -5 0
5 -1 4 0
-3 5 2 0
-5 -5 1 0
-5 2 5 0
-3 4 -4 0
1 2 -4 0
3 -2 3 0
3 2 -2 0
-3 -3 -1 0
1 -4 -4 0
3 -3 -3 0
2 -5 5 0
-1 4 -5 0
2 -3 5 0
-5 -2 -5 0"
29,"3-SAT autogerated in DIMACS-CNF format
p cnf 3 14
1 3 2 0
1 -2 2 0
1 -1 -3 0
-2 -2 -2 0
-1 -1 2 0
1 -2 -3 0
-2 3 -3 0
-1 -2 1 0
-3 -1 -1 0
1 -3 -1 0
-3 -1 -1 0
-1 -2 2 0
-2 -3 1 0
2 2 -3 0"
